p cnf 9 42 
c Factors encoded in variables 1-5 and 6-9
c Target number: 253
c Factors: 23 x 11
-5 3 8 -7 0
5 9 0
-5 9 8 0
-5 -4 3 -2 -9 -7 0
4 9 -8 -7 0
2 -7 0
-4 -3 -2 -9 0
2 3 4 5 0
5 8 0
5 -4 -3 -2 -7 0
-4 -3 -2 -7 0
4 9 0
-5 -9 -8 0
1 0
-4 3 -8 0
5 4 9 8 0
4 3 2 9 0
-3 -8 0
4 -3 -2 9 0
5 4 0
4 9 8 7 0
5 -4 -3 -2 -8 7 0
-5 -3 9 -7 0
-5 -9 -8 -7 0
-5 -4 -8 7 0
7 8 9 0
-2 -9 7 0
-4 -3 -9 -8 7 0
-5 -4 3 9 -8 -7 0
4 3 9 0
-2 7 0
-5 -4 -3 -7 0
4 8 7 0
-4 -9 0
-4 2 -7 0
3 8 0
6 0
5 -2 -9 -8 -7 0
5 2 9 8 0
5 4 9 0
-4 3 2 -9 0
-5 -3 2 -9 -8 -7 0
